(set-logic ALL)
(declare-fun var0 () String)
(assert (str.in_re var0 (re.++ (re.* (re.+ (str.to_re "000"))) (re.++ (re.+ (re.+ (str.to_re "1"))) (re.++ (re.* (re.union (str.to_re "22") (str.to_re "333"))) (re.++ (re.union (re.* (str.to_re "444")) (re.* (str.to_re "555"))) (re.++ (re.union (re.+ (str.to_re "66")) (re.+ (str.to_re "777"))) (re.++ (re.* (re.+ (str.to_re "88"))) (re.++ (re.+ (re.+ (str.to_re "9"))) (re.++ (re.* (re.+ (str.to_re "a"))) (re.++ (re.+ (re.* (str.to_re "b"))) (re.++ (re.union (re.* (str.to_re "ccc")) (re.* (str.to_re "d"))) (re.++ (re.* (re.union (str.to_re "ee") (str.to_re "ff"))) (re.++ (re.* (re.* (str.to_re "gg"))) (re.++ (re.union (re.* (str.to_re "hh")) (re.* (str.to_re "i"))) (re.++ (re.union (re.union (str.to_re "jjj") (str.to_re "kk")) (re.union (str.to_re "ll") (str.to_re "mmm"))) (re.++ (re.* (re.+ (str.to_re "n"))) (re.++ (re.+ (re.union (str.to_re "ooo") (str.to_re "ppp"))) (re.++ (re.+ (re.+ (str.to_re "qq"))) (re.++ (re.union (re.* (str.to_re "r")) (re.* (str.to_re "sss"))) (re.++ (re.union (re.+ (str.to_re "tt")) (re.+ (str.to_re "u"))) (re.++ (re.union (re.+ (str.to_re "v")) (re.+ (str.to_re "www"))) (re.++ (re.+ (re.* (str.to_re "xxx"))) (re.++ (re.union (re.union (str.to_re "yyy") (str.to_re "zzz")) (re.union (str.to_re "A") (str.to_re "B"))) (re.++ (re.* (re.* (str.to_re "CCC"))) (re.++ (re.* (re.union (str.to_re "D") (str.to_re "E"))) (re.++ (re.+ (re.* (str.to_re "F"))) (re.++ (re.* (re.* (str.to_re "GGG"))) (re.++ (re.union (re.* (str.to_re "H")) (re.* (str.to_re "I"))) (re.++ (re.union (re.+ (str.to_re "JJ")) (re.+ (str.to_re "KK"))) (re.++ (re.+ (re.union (str.to_re "L") (str.to_re "M"))) (re.++ (re.+ (re.+ (str.to_re "NN"))) (re.++ (re.+ (re.+ (str.to_re "OO"))) (re.++ (re.+ (re.+ (str.to_re "P"))) (re.++ (re.union (re.* (str.to_re "QQ")) (re.* (str.to_re "RR"))) (re.++ (re.union (re.+ (str.to_re "S")) (re.+ (str.to_re "T"))) (re.++ (re.union (re.* (str.to_re "U")) (re.* (str.to_re "VVV"))) (re.++ (re.+ (re.* (str.to_re "W"))) (re.++ (re.* (re.+ (str.to_re "XXX"))) (re.++ (re.union (re.+ (str.to_re "YYY")) (re.+ (str.to_re "ZZZ"))) (re.++ (re.union (re.* (str.to_re "!")) (re.* (str.to_re """"""))) (re.++ (re.union (re.union (str.to_re "##") (str.to_re "$$")) (re.union (str.to_re "%%") (str.to_re "&&"))) (re.++ (re.union (re.union (str.to_re "'''") (str.to_re "((")) (re.union (str.to_re ")))") (str.to_re "***"))) (re.++ (re.* (re.+ (str.to_re "+"))) (re.++ (re.+ (re.* (str.to_re ","))) (re.++ (re.union (re.* (str.to_re "--")) (re.* (str.to_re ".."))) (re.++ (re.* (re.* (str.to_re "//"))) (re.++ (re.union (re.+ (str.to_re ":")) (re.+ (str.to_re ";;"))) (re.+ (re.union (str.to_re "<<<") (str.to_re "===")))))))))))))))))))))))))))))))))))))))))))))))))))
(check-sat)